Problem:    
Rows:       248
Columns:    89 (72 integer, 72 binary)
Non-zeros:  820
Status:     INTEGER OPTIMAL
Objective:  value = 16.518281 (MINimum)

   No.   Row name        Activity     Lower bound   Upper bound
------ ------------    ------------- ------------- -------------
     1 r.5                   2016.52             0               
     2 r.6                  -1993.89      -1998.98               
     3 r.7                   16.5183             0               
     4 r.8                  -1976.07      -1992.59               
     5 r.9                   2016.52             0               
     6 r.10                 -1994.91      -1998.87               
     7 r.11                  16.5183             0               
     8 r.12                 -1967.93      -1991.87               
     9 r.13                  2016.52             0               
    10 r.14                 -1988.53      -1998.44               
    11 r.15                  16.5183             0               
    12 r.16                 -4.50733      -1987.51               
    13 r.17                  2016.52             0               
    14 r.18                 -1993.09       -1999.2               
    15 r.19                  16.5183             0               
    16 r.20                 -1983.48      -1992.82               
    17 r.21                  2016.52             0               
    18 r.22                 -1991.08      -1999.24               
    19 r.23                  16.5183             0               
    20 r.24                 -17.0017      -1993.92               
    21 r.25                  2016.52             0               
    22 r.26                 -1985.53      -1997.45               
    23 r.27                  16.5183             0               
    24 r.28                  9.33782      -1986.15               
    25 r.29                  2016.52             0               
    26 r.30                 -1983.48      -1997.95               
    27 r.31                  16.5183             0               
    28 r.32                  16.5183      -1993.78               
    29 r.33                  2016.52             0               
    30 r.34                 -1999.89      -1999.89               
    31 r.35                  16.5183             0               
    32 r.36                 -1996.47      -1996.47               
    33 r.37                        1             1             = 
    34 r.38                        1             1             = 
    35 r.39                        1             1             = 
    36 r.40                        1             1             = 
    37 r.41                        1             1             = 
    38 r.42                        1             1             = 
    39 r.43                        1             1             = 
    40 r.44                        1             1             = 
    41 r.45                  1998.98       1.13049               
    42 r.46                 -1998.98      -1998.98               
    43 r.47                  8.13265       8.13265               
    44 r.48                 -8.13265      -1992.59               
    45 r.49                  5.35888       1.55958               
    46 r.50                 -5.35888      -1998.98               
    47 r.51                  1971.56       12.4943               
    48 r.52                 -1971.56      -1992.59               
    49 r.53                   0.7993        0.7993               
    50 r.54                  -0.7993      -1998.98               
    51 r.55                  1992.59       7.18046               
    52 r.56                 -1992.59      -1992.59               
    53 r.57                  2.81268      0.757156               
    54 r.58                 -2.81268      -1998.98               
    55 r.59                  1959.07       6.08127               
    56 r.60                 -1959.07      -1992.59               
    57 r.61                 -1991.64      -1994.45               
    58 r.62                  3.22682      -1983.15               
    59 r.63                 -9.46296      -1994.45               
    60 r.64                   1985.4      -1983.15               
    61 r.65                  10.4073        2.0484               
    62 r.66                 -10.4073      -1998.98               
    63 r.67                  1992.59        6.2166               
    64 r.68                 -1992.59      -1992.59               
    65 r.69                    -1994      -1995.98               
    66 r.70                 -1976.18      -1989.59               
    67 r.71                   2.5809      -1995.98               
    68 r.72                  20.4027      -1989.59               
    69 r.73                  1.02374       1.02374               
    70 r.74                 -1.02374      -1998.87               
    71 r.75                  1991.87       7.41456               
    72 r.76                 -1991.87      -1991.87               
    73 r.77                  6.38262       1.55958               
    74 r.78                 -6.38262      -1998.87               
    75 r.79                  1963.43       12.4943               
    76 r.80                 -1963.43      -1991.87               
    77 r.81                  1.82304        0.7993               
    78 r.82                 -1.82304      -1998.87               
    79 r.83                  1984.45       7.18046               
    80 r.84                 -1984.45      -1991.87               
    81 r.85                  3.83642      0.757156               
    82 r.86                 -3.83642      -1998.87               
    83 r.87                  1950.93       6.08127               
    84 r.88                 -1950.93      -1991.87               
    85 r.89                  9.38262        2.5462               
    86 r.90                 -9.38262      -1998.87               
    87 r.91                  1977.27       13.8452               
    88 r.92                 -1977.27      -1991.87               
    89 r.93                 -1988.57      -1994.95               
    90 r.94                   11.431      -1990.78               
    91 r.95                 -15.5472      -1994.95               
    92 r.96                  1984.45      -1990.78               
    93 r.97                 -1995.02      -1995.87               
    94 r.98                 -1968.05      -1988.87               
    95 r.99                  1.55716      -1995.87               
    96 r.100                 28.5354      -1988.87               
    97 r.101                 1994.64       1.02374               
    98 r.102                -1994.64      -1998.44               
    99 r.103                 28.4402       7.41456               
   100 r.104                -28.4402      -1987.51               
   101 r.105                 1993.62       1.13049               
   102 r.106                -1993.62      -1998.44               
   103 r.107                 36.5728       8.13265               
   104 r.108                -36.5728      -1987.51               
   105 r.109                -1995.44      -1995.44               
   106 r.110                -11.4176      -1984.51               
   107 r.111                 -5.0484      -1995.44               
   108 r.112                 1978.97      -1984.51               
   109 r.113                 1997.45      0.757156               
   110 r.114                -1997.45      -1998.44               
   111 r.115                 1987.51       6.08127               
   112 r.116                -1987.51      -1987.51               
   113 r.117                       3        2.5462               
   114 r.118                      -3      -1998.44               
   115 r.119                 13.8452       13.8452               
   116 r.120                -13.8452      -1987.51               
   117 r.121                -1994.95      -1994.95               
   118 r.122                  5.0484      -1990.78               
   119 r.123                -1978.97      -1994.95               
   120 r.124                 21.0256      -1990.78               
   121 r.125                -1988.64      -1995.44               
   122 r.126                -4.61833      -1984.51               
   123 r.127                 7.93978      -1995.44               
   124 r.128                 1991.96      -1984.51               
   125 r.129                  1999.2       1.02374               
   126 r.130                 -1999.2       -1999.2               
   127 r.131                 7.41456       7.41456               
   128 r.132                -7.41456      -1992.82               
   129 r.133                 1998.18       1.13049               
   130 r.134                -1998.18       -1999.2               
   131 r.135                 15.5472       8.13265               
   132 r.136                -15.5472      -1992.82               
   133 r.137                -1995.44      -1995.44               
   134 r.138                -11.4176      -1984.51               
   135 r.139                 -5.0484      -1995.44               
   136 r.140                 1978.97      -1984.51               
   137 r.141                 2.01338      0.757156               
   138 r.142                -2.01338       -1999.2               
   139 r.143                 1966.48       6.08127               
   140 r.144                -1966.48      -1992.82               
   141 r.145                 7.55958        2.5462               
   142 r.146                -7.55958       -1999.2               
   143 r.147                 1992.82       13.8452               
   144 r.148                -1992.82      -1992.82               
   145 r.149                -1990.39      -1994.95               
   146 r.150                 9.60798      -1990.78               
   147 r.151                       0      -1994.95               
   148 r.152                    2000      -1990.78               
   149 r.153                 -1993.2       -1993.2               
   150 r.154                -1983.59      -1986.82               
   151 r.155                  3.3802       -1993.2               
   152 r.156                 12.9882      -1986.82               
   153 r.157                 1997.19       1.02374               
   154 r.158                -1997.19      -1999.24               
   155 r.159                 40.9345       7.41456               
   156 r.160                -40.9345      -1993.92               
   157 r.161                 1996.16       1.13049               
   158 r.162                -1996.16      -1999.24               
   159 r.163                 49.0672       8.13265               
   160 r.164                -49.0672      -1993.92               
   161 r.165                  2.5462       1.55958               
   162 r.166                 -2.5462      -1999.24               
   163 r.167                 12.4943       12.4943               
   164 r.168                -12.4943      -1993.92               
   165 r.169                 1997.99        0.7993               
   166 r.170                -1997.99      -1999.24               
   167 r.171                 33.5199       7.18046               
   168 r.172                -33.5199      -1993.92               
   169 r.173                -1994.45      -1994.45               
   170 r.174                0.414144      -1983.15               
   171 r.175                -1968.53      -1994.45               
   172 r.176                 26.3395      -1983.15               
   173 r.177                -1992.41      -1994.95               
   174 r.178                  7.5946      -1990.78               
   175 r.179                -1966.48      -1994.95               
   176 r.180                 33.5199      -1990.78               
   177 r.181                -1991.19      -1993.24               
   178 r.182                -17.1127      -1987.92               
   179 r.183                 5.39358      -1993.24               
   180 r.184                 1979.47      -1987.92               
   181 r.185                -1991.64      -1994.45               
   182 r.186                 3.22682      -1983.15               
   183 r.187                -9.46296      -1994.45               
   184 r.188                  1985.4      -1983.15               
   185 r.189                 1990.62       1.13049               
   186 r.190                -1990.62      -1997.45               
   187 r.191                 22.7277       8.13265               
   188 r.192                -22.7277      -1986.15               
   189 r.193                    1997       1.55958               
   190 r.194                   -1997      -1997.45               
   191 r.195                 1986.15       12.4943               
   192 r.196                -1986.15      -1986.15               
   193 r.197                 1992.44        0.7993               
   194 r.198                -1992.44      -1997.45               
   195 r.199                 7.18046       7.18046               
   196 r.200                -7.18046      -1986.15               
   197 r.201                -1994.45      -1994.45               
   198 r.202                0.414144      -1983.15               
   199 r.203                -1968.53      -1994.45               
   200 r.204                 26.3395      -1983.15               
   201 r.205                  2.0484        2.0484               
   202 r.206                 -2.0484      -1997.45               
   203 r.207                 7.18046        6.2166               
   204 r.208                -7.18046      -1986.15               
   205 r.209                 1989.59       1.02374               
   206 r.210                -1989.59      -1997.95               
   207 r.211                 7.41456       7.41456               
   208 r.212                -7.41456      -1993.78               
   209 r.213                -1988.57      -1994.95               
   210 r.214                  11.431      -1990.78               
   211 r.215                -15.5472      -1994.95               
   212 r.216                 1984.45      -1990.78               
   213 r.217                -1994.95      -1994.95               
   214 r.218                  5.0484      -1990.78               
   215 r.219                -1978.97      -1994.95               
   216 r.220                 21.0256      -1990.78               
   217 r.221                -1990.39      -1994.95               
   218 r.222                 9.60798      -1990.78               
   219 r.223                       0      -1994.95               
   220 r.224                    2000      -1990.78               
   221 r.225                -1992.41      -1994.95               
   222 r.226                  7.5946      -1990.78               
   223 r.227                -1966.48      -1994.95               
   224 r.228                 33.5199      -1990.78               
   225 r.229                 1997.95        2.5462               
   226 r.230                -1997.95      -1997.95               
   227 r.231                 1992.82       13.8452               
   228 r.232                -1992.82      -1993.78               
   229 r.233                   -1994      -1995.98               
   230 r.234                -1976.18      -1989.59               
   231 r.235                  2.5809      -1995.98               
   232 r.236                 20.4027      -1989.59               
   233 r.237                -1995.02      -1995.87               
   234 r.238                -1968.05      -1988.87               
   235 r.239                 1.55716      -1995.87               
   236 r.240                 28.5354      -1988.87               
   237 r.241                -1988.64      -1995.44               
   238 r.242                -4.61833      -1984.51               
   239 r.243                 7.93978      -1995.44               
   240 r.244                 1991.96      -1984.51               
   241 r.245                 -1993.2       -1993.2               
   242 r.246                -1983.59      -1986.82               
   243 r.247                  3.3802       -1993.2               
   244 r.248                 12.9882      -1986.82               
   245 r.249                -1991.19      -1993.24               
   246 r.250                -17.1127      -1987.92               
   247 r.251                 5.39358      -1993.24               
   248 r.252                 1979.47      -1987.92               

   No. Column name       Activity     Lower bound   Upper bound
------ ------------    ------------- ------------- -------------
     1 tt                    16.5183             0               
     2 s_1_1        *              1             0             1 
     3 t_1_1                 10.4073             0               
     4 s_1_6        *              1             0             1 
     5 s_2_1        *              0             0             1 
     6 t_2_1                 1992.59             0               
     7 s_2_6        *              0             0             1 
     8 s_1_2        *              1             0             1 
     9 t_1_2                  11.431             0               
    10 s_1_7        *              1             0             1 
    11 s_2_2        *              0             0             1 
    12 t_2_2                 1984.45             0               
    13 s_2_7        *              0             0             1 
    14 s_1_3        *              1             0             1 
    15 t_1_3                  5.0484             0               
    16 s_2_3        *              0             0             1 
    17 t_2_3                 21.0256             0               
    18 s_1_4        *              1             0             1 
    19 t_1_4                 9.60798             0               
    20 s_2_4        *              0             0             1 
    21 t_2_4                    2000             0               
    22 s_1_5        *              1             0             1 
    23 t_1_5                  7.5946             0               
    24 s_2_5        *              0             0             1 
    25 t_2_5                 33.5199             0               
    26 t_1_6                  2.0484             0               
    27 t_2_6                 7.18046             0               
    28 t_1_7                       0             0               
    29 t_2_7                       0             0               
    30 s_1_8        *              1             0             1 
    31 t_1_8                 16.4073             0               
    32 s_2_8        *              0             0             1 
    33 t_2_8                 2012.99             0               
    34 u_1_1_2      *              1             0             1 
    35 u_2_1_2      *              0             0             1 
    36 u_1_1_3      *              0             0             1 
    37 u_2_1_3      *              0             0             1 
    38 u_1_1_4      *              0             0             1 
    39 u_2_1_4      *              1             0             1 
    40 u_1_1_5      *              0             0             1 
    41 u_2_1_5      *              0             0             1 
    42 u_1_1_7      *              0             0             1 
    43 u_2_1_7      *              0             0             1 
    44 u_1_2_1      *              0             0             1 
    45 u_2_2_1      *              1             0             1 
    46 u_1_2_3      *              0             0             1 
    47 u_2_2_3      *              0             0             1 
    48 u_1_2_4      *              0             0             1 
    49 u_2_2_4      *              1             0             1 
    50 u_1_2_5      *              0             0             1 
    51 u_2_2_5      *              0             0             1 
    52 u_1_2_6      *              0             0             1 
    53 u_2_2_6      *              0             0             1 
    54 u_1_3_1      *              1             0             1 
    55 u_2_3_1      *              1             0             1 
    56 u_1_3_2      *              1             0             1 
    57 u_2_3_2      *              1             0             1 
    58 u_1_3_5      *              1             0             1 
    59 u_2_3_5      *              1             0             1 
    60 u_1_3_6      *              0             0             1 
    61 u_2_3_6      *              0             0             1 
    62 u_1_4_1      *              1             0             1 
    63 u_2_4_1      *              0             0             1 
    64 u_1_4_2      *              1             0             1 
    65 u_2_4_2      *              0             0             1 
    66 u_1_4_5      *              0             0             1 
    67 u_2_4_5      *              0             0             1 
    68 u_1_4_6      *              0             0             1 
    69 u_2_4_6      *              0             0             1 
    70 u_1_5_1      *              1             0             1 
    71 u_2_5_1      *              1             0             1 
    72 u_1_5_2      *              1             0             1 
    73 u_2_5_2      *              1             0             1 
    74 u_1_5_3      *              0             0             1 
    75 u_2_5_3      *              0             0             1 
    76 u_1_5_4      *              1             0             1 
    77 u_2_5_4      *              1             0             1 
    78 u_1_6_2      *              1             0             1 
    79 u_2_6_2      *              1             0             1 
    80 u_1_6_3      *              1             0             1 
    81 u_2_6_3      *              1             0             1 
    82 u_1_6_4      *              1             0             1 
    83 u_2_6_4      *              1             0             1 
    84 u_1_6_7      *              0             0             1 
    85 u_2_6_7      *              0             0             1 
    86 u_1_7_1      *              1             0             1 
    87 u_2_7_1      *              1             0             1 
    88 u_1_7_6      *              1             0             1 
    89 u_2_7_6      *              1             0             1 

Integer feasibility conditions:

KKT.PE: max.abs.err = 1.78e-15 on row 85
        max.rel.err = 7.44e-17 on row 85
        High quality

KKT.PB: max.abs.err = 0.00e+00 on row 0
        max.rel.err = 0.00e+00 on row 0
        High quality

End of output
